letting n =  10
letting blocks =  [[1, 1], [1, 3], [1, 4], [1, 6], [1, 9], [3, 3], [3, 8], [4, 2], [4, 3], [4, 4], [4, 6], [4, 8], [5, 1], [5, 5], [5, 6], [5, 9], [6, 1], [6, 9], [7, 4], [7, 8], [8, 1], [8, 2], [8, 5], [8, 7], [9, 3], [9, 5], [9, 7], [9, 8], [9, 10], [10, 4], [10, 6], [10, 10]]
